31652.4
38 72 146 78 180 12 178 87 26 23 164 40 83 136 171 68 133 156 193 79 75 126 108 124 145 45 51 65 37 185 148 33 137 119 179 80 129 174 168 49 0 155 199 125 161 93 31 104 96 166 139 16 89 138 97 169 48 152 69 88 10 167 109 41 22 7 120 189 100 194 102 110 184 172 21 192 57 127 28 190 196 198 107 128 35 175 158 74 66 131 6 197 73 111 60 170 160 134 71 56 30 77 98 44 165 32 67 13 186 64 173 159 85 95 188 142 84 63 149 58 39 2 82 5 17 81 182 103 105 114 132 46 11 27 20 55 150 94 147 130 162 9 181 163 113 24 19 141 8 112 25 86 91 140 47 143 29 99 1 191 50 118 34 61 36 195 18 135 144 116 177 54 101 115 176 4 117 123 52 59 92 43 154 3 70 121 122 187 42 76 90 53 153 62 15 151 183 106 157 14